
******************************************************************************
This program contains Ipopt, a library for large-scale nonlinear optimization.
 Ipopt is released as open source code under the Eclipse Public License (EPL).
         For more information visit http://projects.coin-or.org/Ipopt

This version of Ipopt was compiled from source code available at
    https://github.com/IDAES/Ipopt as part of the Institute for the Design of
    Advanced Energy Systems Process Systems Engineering Framework (IDAES PSE
    Framework) Copyright (c) 2018-2019. See https://github.com/IDAES/idaes-pse.

This version of Ipopt was compiled using HSL, a collection of Fortran codes
    for large-scale scientific computation.  All technical papers, sales and
    publicity material resulting from use of the HSL codes within IPOPT must
    contain the following acknowledgement:
        HSL, a collection of Fortran codes for large-scale scientific
        computation. See http://www.hsl.rl.ac.uk.
******************************************************************************

This is Ipopt version 3.13.2, running with linear solver ma27.

Number of nonzeros in equality constraint Jacobian...:      808
Number of nonzeros in inequality constraint Jacobian.:        0
Number of nonzeros in Lagrangian Hessian.............:      702

Total number of variables............................:      351
                     variables with only lower bounds:      108
                variables with lower and upper bounds:      189
                     variables with only upper bounds:        0
Total number of equality constraints.................:      350
Total number of inequality constraints...............:        0
        inequality constraints with only lower bounds:        0
   inequality constraints with lower and upper bounds:        0
        inequality constraints with only upper bounds:        0

iter    objective    inf_pr   inf_du lg(mu)  ||d||  lg(rg) alpha_du alpha_pr  ls
   0  0.0000000e+00 4.82e-01 3.33e-16  -1.0 0.00e+00    -  0.00e+00 0.00e+00   0
   1  6.3259089e-01 4.03e-01 3.09e+04  -1.0 2.87e+05    -  4.19e-01 1.71e-01h  1
   2  6.7779614e-01 4.00e-01 3.09e+04  -1.0 2.85e+05    -  7.11e-01 7.03e-03h  1
   3  3.2677016e+01 6.55e-02 2.96e+04  -1.0 3.26e+05    -  7.09e-01 9.90e-01h  1
   4  4.4763124e+01 2.73e-03 2.13e+03  -1.0 6.60e+04    -  9.31e-01 9.90e-01h  1
   5  4.5249970e+01 3.11e-05 1.03e+02  -1.0 2.55e+03    -  9.89e-01 9.90e-01h  1
   6  4.5250192e+01 3.08e-05 1.19e+07  -1.0 2.17e+02    -  9.90e-01 7.73e-03f  8
   7  4.5257153e+01 2.89e-05 2.26e+07  -1.0 9.91e+02    -  9.90e-01 6.19e-02f  5
   8  4.5370129e+01 1.12e-04 3.56e+05  -1.0 1.02e+03    -  1.00e+00 9.90e-01H  1
   9  4.5366394e+01 1.49e-06 1.31e+07  -1.0 3.52e+01    -  1.00e+00 9.90e-01h  1
iter    objective    inf_pr   inf_du lg(mu)  ||d||  lg(rg) alpha_du alpha_pr  ls
  10  4.5366529e+01 1.64e-08 1.31e+09  -1.0 1.25e+00    -  1.00e+00 9.90e-01h  1
  11  4.5366531e+01 1.65e-10 1.31e+11  -1.0 1.26e-02    -  1.00e+00 9.90e-01h  1
In iteration 11, 27 Slacks too small, adjusting variable bounds
  12  4.5366531e+01 1.85e-12 1.31e+13  -1.0 1.26e-04    -  1.00e+00 9.90e-01h  1
  13  4.5366531e+01 1.43e-12 3.36e-01  -1.0 1.28e-06    -  1.00e+00 1.00e+00H  1
  14  4.5366530e+01 4.25e-13 1.33e+13  -9.0 1.15e+03    -  9.97e-01 6.75e-06f 18
  15  4.5366529e+01 1.02e-12 1.33e+13  -9.0 1.01e+03    -  9.98e-01 7.63e-06f 18
  16  4.5366527e+01 5.52e-13 1.33e+13  -9.0 1.01e+03    -  1.00e+00 1.53e-05f 17
  17  4.5366527e+01 1.48e-12 1.33e+13  -9.0 1.01e+03    -  1.00e+00 9.54e-07f 21
  18  4.5366527e+01 1.01e-12 1.33e+13  -9.0 1.01e+03    -  1.00e+00 7.63e-06f 18
  19  4.5256496e+01 9.89e-04 9.97e+05  -9.0 1.01e+03    -  1.00e+00 1.00e+00f  1
iter    objective    inf_pr   inf_du lg(mu)  ||d||  lg(rg) alpha_du alpha_pr  ls
  20  4.5254703e+01 1.78e-09 4.92e-04  -9.0 1.63e+01    -  1.00e+00 1.00e+00h  1
  21  4.5254703e+01 3.50e-12 1.46e-11  -9.0 1.79e-04    -  1.00e+00 1.00e+00h  1

Number of Iterations....: 21

                                   (scaled)                 (unscaled)
Objective...............:   4.5254702654481342e+01    4.5254702654481342e+01
Dual infeasibility......:   1.4551915228366852e-11    1.4551915228366852e-11
Constraint violation....:   3.4998670628283435e-12    3.4998670628283435e-12
Complementarity.........:   9.0909090909096225e-10    9.0909090909096225e-10
Overall NLP error.......:   1.3645704765078522e-11    9.0909090909096225e-10


Number of objective function evaluations             = 145
Number of objective gradient evaluations             = 22
Number of equality constraint evaluations            = 145
Number of inequality constraint evaluations          = 0
Number of equality constraint Jacobian evaluations   = 22
Number of inequality constraint Jacobian evaluations = 0
Number of Lagrangian Hessian evaluations             = 21
Total CPU secs in IPOPT (w/o function evaluations)   =      0.050
Total CPU secs in NLP function evaluations           =      1.175

EXIT: Optimal Solution Found.
